38744790680014986505013,15,1,2,09,3,1,2,06,14,1,2,05,12,1,2,012,15,1,2,011,1,1,2,013,8,1,2,014,13,1,2,01,7,1,2,01,9,1,2,012,6,1,2,03,5,1,2,012,8,1,2,012,15,1,2,011,8,1,2,01,2,1,2,012,1,1,2,02,13,1,2,05,9,1,2,013,4,1,2,05,11,1,2,08,8,1,2,07,5,1,2,013,5,1,2,05,15,1,2,05,2,1,2,07,11,1,2,03,8,1,2,015,9,1,2,03,6,1,2,09,6,1,2,013,1,1,2,015,3,1,2,09,10,1,2,09,6,1,2,05,1,1,2,04,6,1,2,05,1,1,2,014,2,1,2,07,3,1,2,03,1,1,2,01,3,1,2,09,7,1,2,02,12,1,2,014,15,1,2,06,14,1,2,08,7,1,2,09,12,1,2,09,7,1,2,012,13,1,2,0